c Lingeling SAT Solver
c 
c Version ala b02aa1a04343558c4252b5f4a723be021964f652
c 
c Copyright (C) 2010-2012 Armin Biere JKU Linz Austria.
c All rights reserved.
c 
c released Sat Oct 13 14:05:26 CEST 2012
c compiled Sat Feb 16 02:48:12 EST 2013
c 
c gcc (Debian 4.4.5-8) 4.4.5
c -Wall -O3 -DNLGLOG -DNDEBUG -DNCHKSOL -DNLGLPICOSAT 
c Linux greencar2 2.6.32-5-amd64 x86_64
c 
c reading input file pb_300_05.cnf
c no embedded options
c found 'p cnf 327522 1028630' header
c read 327522 variables, 1028630 clauses, 2143180 literals in 0.0 seconds
c
c feature vars 327522
c feature lits.total 2143180
c feature lits.pos 1139620
c feature lits.neg 1003560
c feature clauses.total 1028630
c feature clauses.unit 121226
c feature clauses.bin 723958
c feature clauses.trn 181346
c feature clauses.lrg 2100
c feature cog.val.min 1
c feature cog.val.avg 145862
c feature cog.val.max 317209
c feature cog.var.min 1
c feature cog.var.avg 163762
c feature cog.var.max 327521
c
c
c --abstime=0
c --acts=2
c --actavgmax=120
c --actstdmin=20
c --actstdmax=80
c --agile=23
c --bias=2
c --block=1
c --blkrtc=0
c --blkclslim=2000
c --blkocclim=2000
c --blkmaxeff=2147483647
c --blkmineff=10000000
c --blkreleff=20
c --card=0
c --cce=3
c --ccemaxeff=100000000
c --ccemineff=5000000
c --ccereleff=3
c --check=0
c --cgrclsr=1
c --cgrmaxority=20
c --cgrmaxeff=8000000
c --cgrmineff=200000
c --cgreleff=1
c --cgrexteq=1
c --cgrextand=1
c --cgrextunits=1
c --cgrextite=1
c --cgrextxor=1
c --cliff=1
c --cliffreleff=8
c --cliffmineff=10000000
c --cliffmaxeff=100000000
c --compact=0
c --decompose=1
c --defragint=10000000
c --defragfree=50
c --elim=1
c --elmrtc=0
c --elmblk=1
c --elmclslim=1000
c --elmocclim=1000
c --elmaxeff=100000000
c --elmineff=5000000
c --elmreleff=10
c --sleeponabort=0
c --exitonabort=0
c --flipping=1
c --flipint=2
c --flipdur=50
c --fliptop=1
c --force=0
c --gauss=1
c --gaussextrall=1
c --gaussmaxor=20
c --gaussexptrn=1
c --gaussmaxeff=50000000
c --gaussmineff=2000000
c --gaussreleff=2
c --gluescale=2
c --gluekeep=0
c --inprocessing=1
c --cintinc=10000
c --irrlim=20
c --lift=1
c --lftmaxeff=20000000
c --lftmineff=500000
c --lftreleff=6
c --lhbr=1
c --lkhd=1
c --clim=-1
c --mocint=1000
c --move=2
c --log=-1
c --otfs=1
c --phase=0
c --phaseneginit=0
c --plain=0
c --probe=1
c --prbasicmaxeff=100000000
c --prbasicmineff=1000000
c --prbasicreleff=10
c --prbasic=1
c --prbasicroundlim=9
c --queuemergelim=10000
c --queuefactor=833
c --queueinc=20
c --rmincpen=4
c --seed=0
c --smallirr=90
c --smallve=1
c --smallvevars=12
c --randec=1
c --randecint=1000
c --redfixed=0
c --redlbound=0
c --redlexpfac=10
c --redldoutfac=0
c --redloutinc=10000
c --redlinit=1000
c --redlinc=1000
c --redinoutinc=100
c --redlmininc=10
c --redlmaxinc=200
c --redlminrel=10
c --redlmaxrel=300
c --redlminabs=500
c --redlmaxabs=1000000
c --reduce=1
c --restart=2
c --restartint=5
c --rstinoutinc=110
c --simplify=1
c --simpdelay=100
c --simpen=4
c --sizepen=1000000
c --sizemaxpen=3
c --sortlits=0
c --syncint=111111
c --termint=122222
c --ternres=1
c --ternresrtc=0
c --trnrmineff=4000000
c --trnrmaxeff=40000000
c --trnreleff=10
c --transred=1
c --trdmineff=100000
c --trdmaxeff=2000000
c --trdreleff=10
c --unhide=1
c --unhdextstamp=1
c --unhdhbr=0
c --unhdmaxeff=20000000
c --unhdmineff=1000000
c --unhdreleff=4
c --unhdlnpr=3
c --unhdroundlim=5
c --verbose=1
c --witness=1
c [limits] no conflict limit
c [limits] simplification delayed by 100 to 100 conflicts
c 
c  seconds         irredundant          redundant clauses agility   height
c          variables clauses conflicts large binary ternary    glue         MB
c 
c *    0.0  184946   789458         0       0      0     0  76  0.0   0.0   75
c [cut-width] 267199, max 397882, min4 191412 at 75%, min10 40500 at 87%
c [decision-order] bias 1, old 1
c [queue-schedule-all-variables]
c s    0.0  184946   789458         0       0      0     0  76  0.0   0.0   75
c R    0.1  184946   789458        62      59      0     3  16  3.9  39.5   75
c [simplification-1] limit hit at 100 conflicts
c [simplification-1] simplification penalty of 4
c [ternres-1] limit 4000000 with penalty 0 = 0 + 0
c [ternres-1] all 184946 free variables schedulable
c [ternres-1] 1 ternary resolvents (0 bin, 1 trn)
c [ternres-1] 96995 variables remain 52% (87951 retained)
c T    0.2  184946   789458       100      89      3     9  12  3.6  36.3   77
c [gauss-1] limit 2000000 penalty 0 = 0 + 0
c [gauss-1] extracted 159945 xors of average arity 2.0
c [gauss-1] connected 319891 occurrences of 109822 variables (average 2.9)
c [gauss-1] limit 2000000 penalty 0 = 0 + 0
c [gauss-1] exported 0 unary, 0 binary and 0 ternary equations
c G    0.9  184946   762141       100      89      3     9  12  3.6  36.3   44
c d    1.1   86455   402713       100      89      3     9  12  3.6  36.3   34
c [basicprobe-1] limit 1000000 penalty 0 = 0 + 0
c [basicprobe-1-0] 5207 probes remain 6% after last round
c [basicprobe-1-0] 1 units = 1 failed (100%) + 0 lifted (0%)
c [basicprobe-1-0] removed 1 variables, found 860 hbrs
c p    1.2   86454   402713       100      89    863     5  12  3.6  36.3   40
c [cgrclsr-1] limit 200000 penalty 0 = 0 + 0
c [cgrclsr-1] all 86454 free variables schedulable
c [cgrclsr-1] fully completed congruence closure
c [lift-1] limit 500000 with penalty 0 = 0 + 0
c [lift-1] using 86454 probes 100%
c [lift-1] 86439 variables remain 100% (15 retained)
c [cliff-1] limit of 10000000 steps penalty 0 = 0 + 0
c [cliff-1] failed 3, lifted 0
c K    1.9   86419   402708       100      89   7539     5  12  3.6  36.3   41
c [unhide-1] limit 1000000 with penalty 0 = 0 + 0
c [unhide-1-1] 0 units, 0 failed, 49306 tauts, 0 hbrs, 106 literals
c u    2.1   86419   353227       100      86   7514     7  12  3.6  36.3   41
c [transred-1] limit 100000 with penalty 0 = 0 + 0
c [block-1] scheduling all variables this time
c [block-1] scheduled 86419 variables 100%
c [block-1] limit of 10000000 steps penalty 0 = 0 + 0
c [block-1] fully completed blocked clause elimination
c [block-1] transition to [ all 0 rem 0 ] state
c [block-1] eliminated 5400 blocked clauses
c k    2.3   86419   347827       100      86   7514  5407  12  3.6  36.3   34
c [cce-1] scheduling all variables this time
c [cce-1] limit of 10000000 steps penalty 0 = 0 + 0
c [cce-1] incomplete covered clause elimination 80966 not tried 94%
c [cce-1] transition to [ all 1 rem 1 ] state
c [cce-1] eliminated 268 covered clauses
c E    2.8   86362   347559       100      86   9764  5406  12  3.6  36.3   34
c [elim-1] scheduling all variables this time
c [elim-1] scheduled 86362 variables 100%
c [elim-1] limit of 5000000 steps penalty 0 = 0 + 0
c [elim-1] incomplete variable elimination 70506 not tried 82%
c [elim-1] transition to [ all 1 rem 1 ] state
c [elim-1] eliminated 7675 = 9% variables out of 86362
c e    3.8   78687   342281       100      64   5059   707  12  3.6  36.3   34
c [phase-1] phase bias: 2866 positive 6%, 42480 negative 94%
c [simplification-1] removed 106259 variables 57%
c [simplification-1] limit increments divided by 29
c [simplification-1] arithmetic increase of conflict limit interval by 344
c [simplification-1] new irredundant limit 3425607
c [simplification-1] new conflict limit 444
c [simplification-1] simplification penalty reduced to 3
c R    3.9   78687   342281       163     119   5060   714   9  3.7  40.8   40
c R    4.0   78687   342281       407     304   5079   749   6  4.1  32.7   40
c [simplification-2] limit hit at 444 conflicts
c [simplification-2] simplification penalty of 3
c [ternres-2] limit 4000000 with penalty 0 = 0 + 0
c [ternres-2] 41220 schedulable variables 52%
c [ternres-2] 45 ternary resolvents (1 bin, 44 trn)
c [ternres-2] fully completed ternary resolution
c T    4.0   78687   342281       444     331   5085   798   6  4.0  34.4   41
c [gauss-2] limit 1000000 penalty 1 = 1 + 0
c [gauss-2] extracted 391 xors of average arity 3.0
c [gauss-2] connected 1173 occurrences of 756 variables (average 1.6)
c [gauss-2] limit 1000000 penalty 1 = 1 + 0
c [gauss-2] fully completed
c [gauss-2] exported 0 unary, 0 binary and 0 ternary equations
c G    4.2   78687   342281       444     331   5085   798   6  4.0  34.4   34
c d    4.3   78686   342281       444     331   5083   797   6  4.0  34.4   34
c [basicprobe-2] limit 1000000 penalty 0 = 0 + 0
c [basicprobe-2-0] 5642 probes remain 7% after last round
c [basicprobe-2-0] 5 units = 5 failed (100%) + 0 lifted (0%)
c [basicprobe-2-0] removed 16 variables, found 635 hbrs
c p    4.4   78670   342281       444     331   5718   794   6  4.0  34.4   40
c [cgrclsr-2] limit 100000 penalty 1 = 1 + 0
c [cgrclsr-2] all 78670 free variables schedulable
c [cgrclsr-2] fully completed congruence closure
c [lift-2] limit 250000 with penalty 1 = 1 + 0
c [lift-2] using 78656 probes 100%
c [lift-2] 78643 variables remain 100% (27 retained)
c [cliff-2] limit of 10000000 steps penalty 0 = 0 + 0
c [cliff-2] failed 1, lifted 0
c K    5.1   78668   342197       444     331   5755   794   6  4.0  34.4   40
c [unhide-2] limit 1000000 with penalty 0 = 0 + 0
c [unhide-2-2] 0 units, 0 failed, 1472 tauts, 0 hbrs, 158 literals
c u    5.3   78668   342175       444     329   4275   780   6  4.0  34.4   40
c [transred-3] limit 106935 based on 855486 irredundant literals
c [block-2] scheduling all variables this time
c [block-2] scheduled 78668 variables 100%
c [block-2] limit of 10000000 steps penalty 0 = 0 + 0
c [block-2] fully completed blocked clause elimination
c [block-2] transition to [ all 0 rem 0 ] state
c [block-2] eliminated 0 blocked clauses
c [cce-2] 75859 variables 96% will be scheduled this time
c [cce-2] limit of 10000000 steps penalty 0 = 0 + 0
c [cce-2] 75419 variables 96% remain to be tried next time
c [cce-2] transition to [ all 0 rem 1 ] state
c [cce-2] eliminated 460 covered clauses
c E    5.9   78652   341715       444     329   4746   780   6  4.0  34.4   34
c [elim-2] 70460 variables 90% will be scheduled this time
c [elim-2] scheduled 70460 variables 90%
c [elim-2] limit of 5000000 steps penalty 0 = 0 + 0
c [elim-2] 60210 variables 77% remain to be tried next time
c [elim-2] transition to [ all 0 rem 1 ] state
c [elim-2] eliminated 1059 = 1% variables out of 78652
c e    7.0   77593   341033       444     287   2757   778   6  4.0  34.4   34
c [phase-2] phase bias: 328 positive 98%, 7 negative 2%
c [simplification-2] removed 1094 variables 1%
c [simplification-2] no reduction of limit increments
c [simplification-2] arithmetic increase of conflict limit interval by 10000
c [simplification-2] new irredundant limit 3425607
c [simplification-2] new conflict limit 10788
c [simplification-2] simplification penalty reduced to 2
c i    7.1   77592   341032       617     408   2786   795   3  3.7  32.1   40
c 
c  seconds         irredundant          redundant clauses agility   height
c          variables clauses conflicts large binary ternary    glue         MB
c 
c R    7.2   77592   341032       973     694   2812   835   3  4.2  36.3   40
c -    7.3   77592   341032      1359     518   2831   880   6  4.3  37.3   40
c i    7.3   77591   341031      1410     561   2836   881   8  4.3  39.0   40
c R    7.6   77591   341031      2284    1340   2874   930   5  4.6  35.8   41
c i    7.8   77590   341030      2915    1873   2924   971   5  4.7  33.9   41
c -    8.1   77590   341030      4174    1506   2983  1031   6  5.1  34.7   40
c R    8.3   77590   341030      5227    2528   2990  1055   5  6.3  35.0   41
c i    8.4   77589   341029      5496    2762   3007  1070   6  6.2  34.3   41
c i    8.4   77588   341028      5502    2766   3008  1070   6  6.2  34.3   41
c i    8.7   77587   341027      6404    3611   3027  1107   5  6.2  32.9   41
c -    9.1   77587   341027      7890    2509   3063  1159   6  6.2  31.2   41
c i    9.3   77586   341026      8533    3124   3078  1171   5  6.2  30.4   41
c i    9.4   77585   341025      8792    3365   3087  1179   5  6.2  29.9   41
c i    9.4   77584   341024      8968    3538   3087  1181   5  6.2  29.8   41
c i    9.5   77583   341023      9262    3812   3092  1195   5  6.1  29.4   41
c i    9.6   77395   341022      9628    4169   3093  1202   6  6.1  29.3   41
c i    9.7   77316   341021     10046    4571   3097  1213   6  6.1  29.0   41
c i    9.7   77268   341020     10047    4571   3097  1213   6  6.1  29.0   41
c i    9.7   77176   341019     10068    4590   3098  1213   6  6.1  28.9   41
c i    9.7   76801   341018     10069    4590   3098  1213   6  6.1  28.9   41
c i    9.7   76797   341018     10078    4594   3100  1215   6  6.1  28.9   41
c i    9.7   76776   341017     10087    4599   3100  1218   6  6.1  28.9   41
c i    9.7   76601   341017     10088    4599   3100  1218   6  6.1  28.9   41
c 
c  seconds         irredundant          redundant clauses agility   height
c          variables clauses conflicts large binary ternary    glue         MB
c 
c i    9.7   74997   341016     10089    4599   3100  1218   6  6.1  28.9   41
c i    9.7   72468   341015     10091    4599   3101  1218   6  6.1  28.9   41
c 0    9.7   72004   341015     10091    4599   3101  1218   6  6.1  28.9   41
c 
c  seconds         irredundant          redundant clauses agility   height
c          variables clauses conflicts large binary ternary    glue         MB
c 
c blkd: 2 bces, 5400 removed, 2031337 resolutions, 5603254 steps
c blkd: 5400 blocking literals 1%, 0 pure
c cces: 2 cces, 412 eliminated, 412 ate 100%, 0 abce 0%
c cces: 11786 probed, 0 lifted, 39 failed
c clff: 2 cliffs, 0 lifted, 4 failed
c clff: 5282 decisions, 20033414 steps
c clls: 1 sat, 0 simp, 0 freeze, 0 melt
c clls: 3171810 add, 0 assume,, 0 deref, 0 failed
c clls: 0 cassume, 0 mosat
c coll: 15 gcs, 0 rescored clauses
c cgrs: 2 count, 300000 esteps, 55879 csteps
c cgrs: 0 eqs, 0 units
c cgrs: 0 matched (0 ands 0%, 0 xors 0%, 0 ites 0%)
c cgrs: 0 simplified (0 ands 0%, 0 xors 0%, 0 ites 0%)
c cgrs: 1534 extracted (1335 ands 87%, 199 xors 13%, 0 ites 0%)
c dcps: 2 decompositions, 98492 equivalent 30%
c decs: 36088 decision, 33 random 0.091%
c decs: 9546 flipped 26.452% (in 70 phases)
c elms: 2 elims, 8734 eliminated 3%
c elms: 8734 small 100%, 0 large 0%
c elms: 26146 tried small, 8734 succeeded 33%, 17412 failed 67%
c elms: 0 subsumed, 0 strengthened, 0 blocked
c elms: 318346 copies, 215414 resolutions, 649233 ipos
c elms: 0 subchks, 0 strchks
c frcs: 0 computed, 33.4 - 66.6 average min-cut range
c gaus: 2 extractions, 160336 extracted, 2.0 size, 3 max
c gaus: exported 0 units, 0 binary and 0 ternary equations
c gaus: 0 gc, 6000092 steps, 3000046 extr 50%, 2188240 elim 36%
c glue: 6.1 avg, 2.5 scaled avg
c glue: 0 maxredglue=15 (0%)
c lift: 2 phases, 168 probed (56 level1 33%, 112 level2 67%)
c lift: 0 units, 0 equivalences, 0 implications
c hbrs: 13044 hbrs = 13044 trn 100% + 0 lrg 0%, 8 sub 0%
c lrnd: 10027 clauses, 5567 uips 56%, 29.6 length, 6.1 glue
c ints: 510 luby (67094 steps), 0 inout (0 steps)
c mins: 296805 learned lits, 35% minimized
c move: moved 5812, 412 binary 7%, 5400 ternary 93%
c otfs: str 221 dyn (159 red, 62 irr) 64 drv 29%, 157 rst 71%
c otfs: sub 0 dyn (0 red, 0 irr)
c phas: 2 computed, 45706 set, 3194 pos (7%), 42512 neg (93%)
c prbs: 2 basic, 1332 probed, 6 failed, 0 lifted
c prps: 19445019 props, 317 props/dec
c prps: 59% srch, 41% simp, 0% lkhd
c psns: 1157717 searches, 205260 hits, 18% hit rate
c queu: 72805 new, 22486 del, 120 maximum priority
c queu: 50273 merged, 41145 collected, 6 gcs
c queu: 10248 deprioritized, 40.5 lines on average
c reds: 3 count, 0 reset, 3 acts 100%, 0 exp 0%
c reds: 3 arithmetic 100%, 3 double 100%
c rmbd: 10 removed, 1 red 10%
c rsts: 494 restarts 97%, 15 skipped 3%
c rsts: 65 kept 13.2% average 34.1%
c simp: 2 count (0 ilim 0%, 0 plim 0%, 2 clim 100%)
c trnr: 2 count, 1 bin, 45 trn, 7426405 steps
c tops: 148292 fixed 45%, 20 iterations
c trds: 4 transitive reductions, 0 removed, 0 failed
c trds: 129 nodes, 146 edges, 207723 steps
c unhd: 2 count, 2 rounds, 3574188 steps
c unhd: 8 non-trivial sccs of average size 2.0
c unhd: 0 units, 0 bin, 0 trn, 0 lrg
c unhd: 0 failed, 0 stamp, 0 lits, 0 bin, 0 trn, 0 lrg
c unhd: 50778 tauts, 0 bin 0%, 13 trn 0%, 0 lrg 0%
c unhd: 50778 tauts, 50765 stamp 100%, 1472 red 3%
c unhd: 0 hbrs, 0 trn 0%, 0 lrg 0%, 0 red 0%
c unhd: 264 strd, 0 bin 0%, 6 trn 2%, 258 lrg 98%, 260 red 98%
c vars: 72004 remaining 22% and 255518 removed 78% out of 327522
c vars: 148292 fixed 45%, 8734 eliminated 3%, 98492 equivalent 30%
c vsts: 120018121 visits, 69% srch, 31% simp, 0% lkhd
c vsts: 7.2 search visits per propagation 8209.4 per conflict
c wchs: 15912221 pushed, 5507016 enlarged, 23 defrags
c 
c scaledglue  added       reduced       forcing      resolved     conflicts
c 
c all      9164 100      4492 100    110720 100     46413 100      3599 100
c 
c  0          0   0         0   0         0   0         0   0         0   0 
c  1        138   2        29   1      4183   4      1403   3       127   4 
c  2       4185  46      1657  37     83379  75<    30038  65<     2292  64<
c  3       3486  38<     1900  42<    18465  17     11354  24       844  23 
c  4        766   8       483  11      3146   3      2138   5       208   6 
c  5        362   4       238   5       994   1       929   2        86   2 
c  6        140   2       115   3       305   0       324   1        16   0 
c  7         67   1        54   1       159   0       163   0        17   0 
c  8         19   0        15   0        88   0        63   0         9   0 
c  9          0   0         0   0         0   0         0   0         0   0 
c 10          1   0         1   0         1   0         1   0         0   0 
c 11          0   0         0   0         0   0         0   0         0   0 
c 12          0   0         0   0         0   0         0   0         0   0 
c 13          0   0         0   0         0   0         0   0         0   0 
c 14          0   0         0   0         0   0         0   0         0   0 
c 15          0   0         0   0         0   0         0   0         0   0 
c 
c avg             2.8           3.0           2.2           2.4           2.4
c std             1.0           1.1           0.7           0.8           0.9
c 
c 36088 decisions, 10091 conflicts, 1040.2 conflicts/sec
c 19445019 propagations, 2.0 megaprops/sec
c 9.7 seconds, 88.6 MB
c 
c    0.568   6% analysis
c    0.388   4% block
c    0.088   1% bump
c    0.000   0% card
c    0.964  10% cce
c    0.772   8% cliff
c    0.020   0% cutwidth
c    0.012   0% decide
c    0.000   0% force
c    0.956  10% gc
c    0.388   4% cgrclsr
c    0.388   4% decomp
c    0.228   2% defrag
c    1.988  20% elim
c    0.776   8% gauss
c    0.260   3% lift
c    0.068   1% mincls
c    0.072   1% phase
c    0.132   1% probe
c    0.016   0% reduce
c    0.056   1% restart
c    0.116   1% ternres
c    0.024   0% transred
c    0.416   4% unhide
c ==================================
c    0.024   0% preprocessing     0%
c    6.808  70% inprocessing    100%
c ==================================
c    6.832  70% simplifying
c    0.000   0% lookahead
c    2.864  30% search
c ==================================
c    9.701 100% all
c
s UNSATISFIABLE
